&CONTROL
   calculation='scf'
    outdir='./out/'
    pseudo_dir='/home/srbphy/srbphy/joyal/pseudo/pseudo'
    verbosity='high'
    prefix='nite2-ecut-conv'
/
/
&SYSTEM
   ntyp             = 2
   nat              = 81
   ibrav            = 0
   ecutwfc=50
    ecutrho=200
    occupations='smearing'
    smearing='mv'
    degauss=0.01
/
&ELECTRONS
  diagonalization='david'
    electron_maxstep=100
    mixing_mode='local-TF'
    mixing_beta=0.2
    conv_thr=1.0d-6
/
&IONS
/
&CELL
/

ATOMIC_SPECIES
    Te 127.6 Te.pbe-n-kjpaw_psl.1.0.0.UPF
    Ni 58.6934 Ni.pbe-n-kjpaw_psl.0.1.UPF

K_POINTS automatic
    3 3 1 0 0 0
CELL_PARAMETERS angstrom
11.60700000000000 0.00000000000000 0.00000000000000
-5.80350000000000 18.83124034019002 0.00000000000000
0.00000000000000 -0.00000000000000 21.13876972911008

ATOMIC_POSITIONS angstrom
Te -0.0000967250 0.4908620822 7.5000000000 
Te 1.9344032750 2.2794119409 10.3333655170 
Te 0.0002901750 3.9273745453 7.9720386951 
Ni 1.9345967250 2.2091183138 7.7360193476 
Te -0.0000967250 4.0679617996 13.1667310340 
Te 1.9347901750 5.7159244041 10.8054042121 
Ni 0.0000967250 3.9976681725 10.5693848646 
Te 1.9347901750 1.2273941494 13.6387697291 
Ni 1.9345967250 5.7862180312 13.4027503815 
Te -1.9345967250 6.7679421956 7.5000000000 
Te -0.0000967250 8.5564920543 10.3333655170 
Te -1.9342098250 10.2044546587 7.9720386951 
Ni 0.0000967250 8.4861984272 7.7360193476 
Te -1.9345967250 10.3450419130 13.1667310340 
Te 0.0002901750 11.9930045175 10.8054042121 
Ni -1.9344032750 10.2747482859 10.5693848646 
Te 0.0002901750 7.5044742628 13.6387697291 
Ni 0.0000967250 12.0632981446 13.4027503815 
Te -3.8690967250 13.0450223090 7.5000000000 
Te -1.9345967250 14.8335721677 10.3333655170 
Te -3.8687098250 16.4815347721 7.9720386951 
Ni -1.9344032750 14.7632785406 7.7360193476 
Te -3.8690967250 16.6221220264 13.1667310340 
Te -1.9342098250 18.2700846309 10.8054042121 
Ni -3.8689032750 16.5518283993 10.5693848646 
Te -1.9342098250 13.7815543762 13.6387697291 
Ni -1.9344032750 18.3403782580 13.4027503815 
Te 3.8689032750 0.4908620822 7.5000000000 
Te 5.8034032750 2.2794119409 10.3333655170 
Te 3.8692901750 3.9273745453 7.9720386951 
Ni 5.8035967250 2.2091183138 7.7360193476 
Te 3.8689032750 4.0679617996 13.1667310340 
Te 5.8037901750 5.7159244041 10.8054042121 
Ni 3.8690967250 3.9976681725 10.5693848646 
Te 5.8037901750 1.2273941494 13.6387697291 
Ni 5.8035967250 5.7862180312 13.4027503815 
Te 1.9344032750 6.7679421956 7.5000000000 
Te 3.8689032750 8.5564920543 10.3333655170 
Te 1.9347901750 10.2044546587 7.9720386951 
Ni 3.8690967250 8.4861984272 7.7360193476 
Te 1.9344032750 10.3450419130 13.1667310340 
Te 3.8692901750 11.9930045175 10.8054042121 
Ni 1.9345967250 10.2747482859 10.5693848646 
Te 3.8692901750 7.5044742628 13.6387697291 
Ni 3.8690967250 12.0632981446 13.4027503815 
Te -0.0000967250 13.0450223090 7.5000000000 
Te 1.9344032750 14.8335721677 10.3333655170 
Te 0.0002901750 16.4815347721 7.9720386951 
Ni 1.9345967250 14.7632785406 7.7360193476 
Te -0.0000967250 16.6221220264 13.1667310340 
Te 1.9347901750 18.2700846309 10.8054042121 
Ni 0.0000967250 16.5518283993 10.5693848646 
Te 1.9347901750 13.7815543762 13.6387697291 
Ni 1.9345967250 18.3403782580 13.4027503815 
Te 7.7379032750 0.4908620822 7.5000000000 
Te 9.6724032750 2.2794119409 10.3333655170 
Te 7.7382901750 3.9273745453 7.9720386951 
Ni 9.6725967250 2.2091183138 7.7360193476 
Te 7.7379032750 4.0679617996 13.1667310340 
Te 9.6727901750 5.7159244041 10.8054042121 
Ni 7.7380967250 3.9976681725 10.5693848646 
Te 9.6727901750 1.2273941494 13.6387697291 
Ni 9.6725967250 5.7862180312 13.4027503815 
Te 5.8034032750 6.7679421956 7.5000000000 
Te 7.7379032750 8.5564920543 10.3333655170 
Te 5.8037901750 10.2044546587 7.9720386951 
Ni 7.7380967250 8.4861984272 7.7360193476 
Te 5.8034032750 10.3450419130 13.1667310340 
Te 7.7382901750 11.9930045175 10.8054042121 
Ni 5.8035967250 10.2747482859 10.5693848646 
Te 7.7382901750 7.5044742628 13.6387697291 
Ni 7.7380967250 12.0632981446 13.4027503815 
Te 3.8689032750 13.0450223090 7.5000000000 
Te 5.8034032750 14.8335721677 10.3333655170 
Te 3.8692901750 16.4815347721 7.9720386951 
Ni 5.8035967250 14.7632785406 7.7360193476 
Te 3.8689032750 16.6221220264 13.1667310340 
Te 5.8037901750 18.2700846309 10.8054042121 
Ni 3.8690967250 16.5518283993 10.5693848646 
Te 5.8037901750 13.7815543762 13.6387697291 
Ni 5.8035967250 18.3403782580 13.4027503815 
